NAME : solucion.tour
TYPE : TOUR
DIMENSION : 9
SOLUTION: 14252.327068106853
TOUR_SECTION
5,1,3,2,7,8,4,6,5
767.3911344422365 - 5, 1
1571.6850765075742 - 1, 3
1725.615930055602 - 3, 2
1926.337616027733 - 2, 7
969.2449012271527 - 7, 8
1168.0902476644883 - 8, 4
3000.788379100695 - 4, 6
3123.1737830813704 - 6, 5
EOF